clasp version 2.1.3
Reading from asp/inst/pb_400_03.lp
Solving...
UNKNOWN

TIME LIMIT  : 1
Models      : 0+    
Time        : 1799.997s (Solving: 1794.93s 1st Model: 0.00s Unsat: 0.00s)
CPU Time    : 1795.920s
Choices     : 6932182
Conflicts   : 571645
Restarts    : 19     (Average: 30086.58 Last: 443173)

Atoms       : 683830 (Original: 21374 Auxiliary: 662456)
Rules       : 1379545 (1: 32945/1377096 2: 2049/0 3: 400/0)
Bodies      : 1314638
Equivalences: 1387928 (Atom=Atom: 7295 Body=Body: 9200 Other: 1371433)
Tight       : Yes

Variables   : 1299297 (Eliminated:    0 Frozen:    0)
Constraints : 3849482 (Binary: 67.6% Ternary: 32.3% Other:  0.1%)
Lemmas      : 571645 (Binary:  1.1% Ternary:  1.3% Other: 97.6%)
  Conflict  : 571645 (Average Length: 618.0) 
  Loop      : 0      (Average Length: 0.0) 
  Other     : 0      (Average Length: 0.0)
  Deleted   : 490695
